<number of tasks>
29

<cycle time>
41

<task times>
1 7
2 19
3 15
4 5
5 12
6 10
7 8
8 16
9 2
10 6
11 21
12 10
13 9
14 4
15 14
16 7
17 14
18 17
19 10
20 16
21 1
22 9
23 25
24 14
25 14
26 2
27 10
28 7
29 20

<precedence relations>
1,3
1,25
2,6
2,26
3,4
4,5
5,8
5,13
6,8
7,9
7,12
7,25
8,11
8,16
9,10
10,14
10,15
11,17
12,15
13,17
14,16
15,19
16,18
17,20
18,22
19,21
20,23
21,22
22,23
23,24
23,28
24,29
25,29
26,27
27,29
28,29

<setup times forward>
1,6:1
1,10:1
1,15:1
1,21:1
1,27:1
2,6:1
2,10:1
2,15:1
2,21:1
3,6:1
3,10:1
3,15:1
3,21:1
3,27:1
4,6:1
4,10:1
4,15:1
4,21:1
4,27:1
5,6:1
5,10:1
5,15:1
5,21:1
5,27:1
6,1:1
6,3:1
6,4:1
6,5:1
6,7:1
6,8:1
6,9:1
6,12:1
6,13:1
6,14:1
6,19:1
6,25:1
6,26:1
7,6:1
7,17:1
7,27:1
8,10:1
8,15:1
8,21:1
8,27:1
9,6:1
9,10:1
9,17:1
9,27:1
10,1:1
10,2:1
10,3:1
10,4:1
10,5:1
10,8:1
10,11:1
10,12:1
10,13:1
10,14:1
10,20:1
10,25:1
10,26:1
11,10:1
11,15:1
11,17:1
11,18:1
11,21:1
11,22:1
11,27:1
12,6:1
12,10:1
12,15:1
12,17:1
12,18:1
12,27:1
13,6:1
13,10:1
13,15:1
13,17:1
13,18:1
13,21:1
13,22:1
13,27:1
14,6:1
14,15:1
14,17:1
14,21:1
14,27:1
15,1:1
15,2:1
15,3:1
15,4:1
15,5:1
15,8:1
15,11:1
15,13:1
15,14:1
15,16:1
15,19:1
15,20:1
15,25:1
15,26:1
16,15:1
16,17:1
16,18:1
16,21:1
16,27:1
17,7:1
17,9:1
17,12:1
17,14:1
17,16:1
17,19:1
17,20:1
17,25:1
17,26:1
18,11:1
18,12:1
18,13:1
18,19:1
18,20:1
18,25:1
18,26:1
19,6:1
19,17:1
19,18:1
19,21:1
19,27:1
20,10:1
20,15:1
20,18:1
20,21:1
20,22:1
20,27:1
21,1:1
21,2:1
21,3:1
21,4:1
21,5:1
21,8:1
21,11:1
21,13:1
21,14:1
21,16:1
21,20:1
21,25:1
21,26:1
22,11:1
22,13:1
22,20:1
22,23:1
22,25:1
22,26:1
23,24:1
23,27:1
23,28:1
24,25:1
24,26:1
25,6:1
25,10:1
25,15:1
25,17:1
25,18:1
25,21:1
25,22:1
25,24:1
25,27:1
25,28:1
25,29:1
26,6:1
26,10:1
26,15:1
26,17:1
26,18:1
26,21:1
26,22:1
26,24:1
26,27:1
26,28:1
27,1:1
27,3:1
27,4:1
27,5:1
27,7:1
27,8:1
27,9:1
27,11:1
27,12:1
27,13:1
27,14:1
27,16:1
27,19:1
27,20:1
27,23:1
27,25:1
28,25:1
28,26:1

<setup times backward>
1,6:1
1,10:1
1,15:1
1,21:1
1,27:1
2,10:1
2,15:1
2,21:1
3,6:1
3,10:1
3,15:1
3,21:1
3,27:1
4,6:1
4,10:1
4,15:1
4,21:1
4,27:1
5,6:1
5,10:1
5,15:1
5,21:1
5,27:1
7,6:1
7,17:1
7,27:1
8,6:1
8,10:1
8,15:1
8,21:1
8,27:1
9,6:1
9,17:1
9,27:1
11,6:1
11,10:1
11,15:1
11,18:1
11,21:1
11,22:1
11,27:1
12,6:1
12,10:1
12,17:1
12,18:1
12,27:1
13,6:1
13,10:1
13,15:1
13,18:1
13,21:1
13,22:1
13,27:1
14,6:1
14,10:1
14,15:1
14,17:1
14,21:1
14,27:1
16,6:1
16,10:1
16,15:1
16,17:1
16,21:1
16,27:1
19,6:1
19,10:1
19,15:1
19,17:1
19,18:1
19,27:1
20,6:1
20,10:1
20,15:1
20,17:1
20,18:1
20,21:1
20,22:1
20,27:1
23,6:1
23,10:1
23,15:1
23,17:1
23,18:1
23,21:1
23,22:1
23,27:1
25,6:1
25,10:1
25,15:1
25,17:1
25,18:1
25,21:1
25,22:1
25,24:1
25,27:1
25,28:1
26,6:1
26,10:1
26,15:1
26,17:1
26,18:1
26,21:1
26,22:1
26,24:1
26,28:1

<end>

<optimal SALBP-1 value>
8


<rand seed>
467321153

<Lower Bounds>
Lm1=8
Lms1=8
Lm2=2
Lm3=6
Lm4=8
Best=8

<Optimal Stations (Iterations: 10)>
9
